32      4       
10      10      10      10      
0       0       0       0       0       3       2       3       5       
8       0       1       1       1       3       4       6       7       
4       1       0       4       3       5       6       7       8       9       10      
2       0       6       5       3       5       8       9       10      11      12      
1       4       6       0       5       4       8       9       11      12      
8       4       3       6       0       2       11      12      
5       3       2       0       5       4       12      17      18      20      
4       4       5       3       0       7       13      15      16      17      18      19      20      
1       0       7       6       5       7       13      14      15      16      17      18      19      
2       4       2       6       0       7       13      15      16      17      18      19      20      
3       5       2       0       4       6       14      15      16      17      18      20      
9       0       3       1       4       5       13      14      15      16      19      
7       0       5       7       6       4       21      22      23      31      
9       3       4       0       3       4       21      22      23      31      
9       0       3       4       2       4       22      23      30      31      
5       0       5       4       3       3       21      23      31      
7       7       0       3       5       3       21      22      31      
5       3       0       4       4       3       21      22      31      
6       4       4       3       0       3       21      23      31      
7       0       4       3       2       3       21      23      31      
6       4       0       5       5       5       24      27      28      29      30      
3       5       2       4       0       5       24      25      26      28      29      
9       0       8       3       5       4       24      25      26      27      
8       3       0       4       7       1       32      
2       0       5       5       5       1       32      
7       2       5       4       0       1       32      
4       7       0       2       3       1       32      
1       3       2       4       0       1       32      
1       5       0       6       2       1       32      
8       5       0       2       4       1       32      
4       0       4       5       6       1       32      
0       0       0       0       0       0       
